000 000 000 000 000 -99 000 000 -99 -99 -99 -99 -99 000 000 000 -99 -99 000 000 -99 -99 -99 -99 000 000 000 000 000 -99 000
000 -99 000 000 000 000 000 000 -99 -99 -99 -99 -99 000 000 000 -99 -99 -99 000 -99 -99 000 000 000 000 000 000 000 -99 000
000 -99 000 000 000 000 000 000 -99 -99 -99 -99 -99 -99 000 000 000 -99 -99 000 -99 -99 000 000 -99 000 000 000 000 -99 -99
000 -99 000 000 000 000 000 -99 000 000 -99 -99 -99 -99 000 000 000 -99 -99 000 000 -99 000 000 -99 -99 000 000 000 -99 -99
000 000 000 000 000 000 000 000 000 000 000 -99 000 000 000 000 000 -99 -99 -99 000 000 000 000 000 000 000 000 000 -99 -99
000 000 000 000 000 000 000 000 000 000 000 -99 000 000 -99 000 000 -99 -99 -99 000 000 000 000 000 000 -99 -99 -99 -99 -99
003 000 000 000 000 000 -99 000 000 000 000 000 -99 000 -99 -99 000 000 -99 -99 000 000 000 -99 000 000 -99 -99 -99 -99 -99
004 000 000 000 000 000 000 -99 000 -99 000 000 -99 000 -99 -99 000 000 000 -99 000 000 000 000 000 000 -99 -99 -99 000 000
000 000 000 000 000 -99 -99 -99 -99 -99 000 000 -99 -99 -99 -99 000 000 -99 -99 000 000 000 000 000 -99 -99 -99 -99 000 000
000 000 000 000 000 000 -99 -99 -99 000 000 000 -99 -99 -99 000 -99 000 000 -99 000 000 -99 000 000 000 -99 000 000 000 000
000 000 000 000 000 000 000 000 000 000 000 000 -99 -99 000 000 -99 -99 -99 -99 -99 000 -99 000 000 -99 -99 000 000 000 000
000 000 000 000 000 000 000 000 000 000 000 000 000 -99 000 000 000 -99 000 000 000 000 -99 000 000 -99 -99 000 000 000 000
000 000 000 000 000 000 000 000 000 -99 000 000 000 -99 -99 000 000 000 000 000 -99 000 -99 000 000 -99 000 000 000 000 000
000 000 000 000 000 000 000 000 000 -99 -99 000 000 -99 -99 000 000 000 -99 000 -99 000 -99 000 000 000 000 000 000 -99 000
000 -99 000 000 000 000 000 000 000 -99 -99 -99 000 000 -99 000 000 -99 000 -99 -99 000 -99 000 000 000 000 000 000 -99 -99
000 -99 -99 -99 000 000 000 000 000 -99 -99 -99 -99 -99 -99 000 000 -99 000 -99 -99 000 000 000 000 000 000 000 000 -99 -99
-99 -99 -99 -99 -99 -99 000 000 000 -99 -99 -99 -99 000 -99 000 000 000 000 -99 -99 000 000 000 000 000 000 000 000 000 -99
000 000 000 -99 -99 -99 000 000 000 000 -99 -99 -99 -99 000 000 000 000 -99 -99 -99 000 000 -99 -99 000 -99 -99 -99 000 -99
000 000 000 -99 -99 -99 000 000 000 -99 -99 -99 -99 -99 000 000 000 000 000 -99 -99 000 000 -99 -99 -99 -99 -99 -99 -99 -99
000 000 000 000 -99 -99 -99 000 000 -99 -99 -99 -99 -99 000 -99 000 000 000 000 000 000 000 -99 -99 -99 -99 -99 -99 -99 -99
000 000 000 000 000 000 -99 -99 000 000 -99 -99 -99 -99 -99 -99 000 000 000 000 000 000 000 -99 -99 -99 -99 -99 -99 -99 -99
000 000 000 000 000 000 -99 000 000 000 -99 -99 -99 -99 -99 000 000 000 000 000 000 000 000 -99 -99 -99 -99 -99 -99 -99 -99
000 000 000 000 000 000 000 000 000 000 -99 -99 -99 -99 000 000 000 000 000 000 000 000 000 -99 -99 -99 -99 -99 -99 -99 -99
000 000 000 000 000 000 000 000 000 -99 -99 -99 -99 000 000 000 000 -99 000 000 000 000 000 -99 -99 -99 -99 -99 -99 -99 -99
000 000 000 000 000 000 000 000 000 000 -99 -99 -99 000 000 000 000 000 000 000 000 000 000 -99 -99 -99 -99 -99 -99 -99 -99
000 000 000 000 000 000 000 000 000 000 -99 -99 000 000 000 000 000 000 000 000 000 -99 000 -99 -99 -99 -99 -99 -99 -99 000
000 000 000 000 000 000 000 000 000 000 -99 -99 -99 000 000 000 000 000 000 000 -99 000 000 -99 -99 -99 -99 -99 -99 000 000
000 000 000 000 000 000 000 000 000 000 -99 -99 -99 -99 000 000 000 000 000 -99 000 000 000 -99 -99 -99 -99 -99 -99 000 000
000 000 000 000 000 000 000 000 000 000 -99 -99 -99 000 000 000 000 000 000 -99 000 000 -99 -99 -99 -99 -99 -99 -99 000 -99
000 000 000 000 000 000 000 000 000 000 -99 -99 -99 000 000 000 000 000 000 000 000 000 -99 -99 -99 -99 -99 -99 -99 -99 -99
000 000 000 000 000 000 000 000 000 000 000 -99 -99 000 000 000 000 000 000 000 000 000 -99 -99 -99 -99 -99 -99 -99 -99 -99
000 000 000 000 000 -99 000 000 000 000 -99 -99 -99 000 000 -99 000 000 000 -99 -99 000 000 000 -99 -99 -99 -99 -99 -99 -99
000 000 000 000 000 000 000 000 000 -99 -99 -99 -99 000 000 -99 000 000 000 -99 -99 000 000 000 000 -99 -99 -99 -99 000 000
000 000 000 000 000 000 000 000 -99 000 -99 -99 -99 000 000 000 000 000 -99 -99 -99 000 -99 -99 000 000 000 000 000 000 000
-99 000 000 000 000 000 000 000 000 000 000 -99 000 000 000 000 000 -99 000 000 000 -99 -99 000 000 000 000 000 000 000 -99
000 000 000 000 000 000 000 000 000 000 000 000 000 000 000 000 000 -99 000 000 000 000 -99 000 000 -99 000 000 000 000 -99
000 -99 -99 -99 000 000 000 000 000 000 -99 000 000 000 000 000 000 000 000 000 000 -99 000 000 000 000 000 000 000 000 -99
000 -99 000 000 000 000 000 000 000 -99 -99 000 000 000 000 000 000 000 -99 000 000 -99 000 000 000 -99 000 000 -99 000 -99
000 000 000 000 000 000 000 000 -99 -99 -99 000 000 000 000 000 000 000 -99 000 000 -99 000 000 000 -99 000 000 000 000 -99
-99 000 000 -99 -99 -99 000 000 -99 -99 -99 000 000 000 000 000 000 000 -99 -99 -99 -99 000 000 000 -99 000 000 000 000 -99
-99 002 002 000 -99 -99 -99 -99 -99 -99 000 000 000 000 000 000 000 -99 -99 -99 -99 -99 000 000 -99 000 000 -99 -99 000 -99
001 004 -99 -99 -99 -99 -99 000 000 -99 000 000 000 000 000 000 -99 -99 -99 -99 -99 -99 000 -99 000 000 -99 -99 -99 -99 -99
000 000 -99 -99 -99 000 -99 -99 -99 000 000 000 000 000 000 000 -99 -99 -99 000 000 -99 -99 -99 000 000 -99 -99 -99 -99 000
000 -99 -99 -99 -99 000 -99 -99 -99 000 -99 000 000 000 000 000 000 000 000 000 000 -99 -99 -99 000 000 -99 000 -99 -99 000
000 000 -99 -99 000 -99 -99 -99 -99 000 -99 000 000 000 000 000 000 -99 000 000 000 -99 -99 000 000 -99 000 000 -99 -99 -99
000 -99 -99 -99 -99 -99 -99 -99 -99 -99 -99 000 000 000 000 000 000 000 000 000 -99 -99 -99 -99 000 000 000 000 -99 -99 000
000 -99 -99 -99 -99 -99 -99 -99 -99 -99 -99 000 000 000 000 -99 -99 -99 000 -99 -99 -99 000 -99 -99 000 000 -99 -99 -99 -99
-99 -99 -99 -99 -99 -99 -99 -99 000 000 -99 -99 000 000 -99 -99 -99 000 -99 000 000 000 000 000 -99 -99 000 -99 -99 -99 -99
-99 -99 -99 -99 -99 -99 -99 -99 000 000 -99 -99 -99 -99 -99 -99 -99 000 -99 -99 000 000 000 -99 -99 -99 -99 -99 -99 -99 -99
-99 -99 -99 -99 -99 -99 -99 -99 -99 -99 -99 -99 -99 -99 -99 -99 -99 000 -99 -99 000 000 -99 -99 -99 -99 -99 -99 -99 -99 -99
-99 -99 -99 -99 -99 -99 -99 -99 -99 -99 -99 -99 -99 -99 -99 -99 -99 -99 000 -99 000 000 -99 -99 -99 -99 -99 -99 -99 -99 -99
-99 -99 -99 -99 -99 -99 -99 -99 -99 -99 -99 -99 -99 -99 -99 -99 -99 000 000 000 000 -99 -99 -99 -99 -99 -99 -99 -99 -99 -99
-99 -99 -99 -99 -99 -99 -99 -99 -99 -99 -99 -99 -99 -99 -99 -99 -99 -99 000 000 000 -99 -99 -99 -99 -99 -99 000 000 000 -99
-99 -99 -99 -99 -99 -99 -99 -99 -99 -99 -99 -99 -99 -99 -99 -99 -99 -99 001 000 -99 -99 -99 -99 -99 -99 000 000 000 000 -99
-99 -99 -99 -99 -99 -99 -99 -99 -99 -99 -99 -99 -99 -99 -99 -99 -99 001 001 000 -99 -99 -99 -99 -99 -99 000 000 000 000 000
